(set-option :produce-models true)
(set-logic QF_UF)
(declare-fun p76() Bool)
(declare-fun p82() Bool)
(declare-fun p68() Bool)
(declare-fun p87() Bool)
(declare-fun p64() Bool)
(declare-fun p6() Bool)
(declare-fun p0() Bool)
(declare-fun p36() Bool)
(declare-fun p81() Bool)
(declare-fun p49() Bool)
(declare-fun p5() Bool)
(declare-fun p63() Bool)
(declare-fun p7() Bool)
(declare-fun p38() Bool)
(declare-fun p83() Bool)
(declare-fun p58() Bool)
(declare-fun p78() Bool)
(declare-fun p73() Bool)
(declare-fun p17() Bool)
(declare-fun p89() Bool)
(declare-fun p80() Bool)
(declare-fun p42() Bool)
(declare-fun p55() Bool)
(declare-fun p60() Bool)
(declare-fun p25() Bool)
(declare-fun p69() Bool)
(declare-fun p43() Bool)
(declare-fun p32() Bool)
(declare-fun p9() Bool)
(declare-fun p14() Bool)
(declare-fun p56() Bool)
(declare-fun p2() Bool)
(declare-fun p39() Bool)
(declare-fun p35() Bool)
(declare-fun p10() Bool)
(declare-fun p86() Bool)
(declare-fun p1() Bool)
(declare-fun p51() Bool)
(declare-fun p34() Bool)
(declare-fun p15() Bool)
(declare-fun p28() Bool)
(declare-fun p79() Bool)
(declare-fun p66() Bool)
(declare-fun p62() Bool)
(declare-fun p29() Bool)
(declare-fun p70() Bool)
(declare-fun p31() Bool)
(declare-fun p19() Bool)
(declare-fun p65() Bool)
(declare-fun p22() Bool)
(declare-fun p44() Bool)
(declare-fun p72() Bool)
(declare-fun p20() Bool)
(declare-fun p30() Bool)
(declare-fun p16() Bool)
(declare-fun p88() Bool)
(declare-fun p84() Bool)
(declare-fun p21() Bool)
(declare-fun p71() Bool)
(declare-fun p37() Bool)
(declare-fun p27() Bool)
(declare-fun p46() Bool)
(declare-fun p75() Bool)
(declare-fun p57() Bool)
(declare-fun p23() Bool)
(declare-fun p13() Bool)
(declare-fun p45() Bool)
(declare-fun p48() Bool)
(declare-fun p18() Bool)
(declare-fun p40() Bool)
(declare-fun p74() Bool)
(declare-fun p3() Bool)
(declare-fun p53() Bool)
(declare-fun p50() Bool)
(declare-fun p24() Bool)
(declare-fun p26() Bool)
(declare-fun p12() Bool)
(declare-fun p41() Bool)
(declare-fun p67() Bool)
(declare-fun p11() Bool)
(declare-fun p61() Bool)
(declare-fun p33() Bool)
(declare-fun p4() Bool)
(declare-fun p8() Bool)
(declare-fun p47() Bool)
(declare-fun p59() Bool)
(declare-fun p54() Bool)
(declare-fun p77() Bool)
(declare-fun p52() Bool)
(declare-fun p85() Bool)
(assert
(and (or p76 p76 p82) (or (not p68) (not p87) (not p64)) (or (not p6) (not p0) p36) (or p87 (not p81) p49) (or p5 p63 p7) (or p38 p83 (not p58)) (or (not p78) p73 (not p17)) (or p89 (not p80) p76) (or p42 p55 p60) (or p25 p69 (not p7)) (or p43 p32 p9) (or (not p14) p0 (not p56)) (or (not p2) (not p39) p35) (or (not p10) (not p86) p1) (or p51 (not p34) (not p39)) (or p2 p15 p80) (or p28 (not p79) p66) (or (not p86) (not p62) p29) (or p70 (not p80) (not p31)) (or (not p64) p60 p19) (or (not p65) p86 (not p19)) (or p22 p31 (not p73)) (or p15 p44 (not p34)) (or p7 p9 (not p72)) (or p20 (not p7) p30) (or p16 (not p88) p31) (or (not p84) p76 p21) (or (not p71) (not p5) (not p37)) (or p56 (not p58) p27) (or (not p72) p32 p30) (or (not p46) p75 (not p43)) (or (not p34) (not p25) p79) (or (not p10) (not p79) (not p49)) (or (not p10) p87 p21) (or (not p63) (not p2) p42) (or p57 p23 (not p32)) (or (not p16) (not p9) (not p64)) (or p57 (not p79) p65) (or (not p16) p71 (not p13)) (or p36 p10 (not p89)) (or p21 (not p65) p45) (or p78 (not p28) p48) (or (not p18) p40 p75) (or (not p56) (not p71) (not p71)) (or p74 (not p9) p66) (or (not p43) (not p29) (not p62)) (or p34 p71 p14) (or (not p39) (not p32) (not p87)) (or (not p3) (not p7) p23) (or (not p48) p51 p53) (or p40 p1 (not p78)) (or (not p50) (not p48) p24) (or p57 (not p26) p31) (or p56 p65 (not p12)) (or p38 (not p74) p41) (or p40 p53 p42) (or (not p15) (not p19) (not p40)) (or (not p16) p49 (not p23)) (or p38 p84 p49) (or (not p78) p69 (not p72)) (or (not p1) p58 (not p83)) (or (not p27) (not p6) p70) (or (not p23) p25 (not p53)) (or p27 p84 p56) (or p21 (not p27) p48) (or (not p17) p29 (not p44)) (or (not p30) p67 p10) (or p5 p30 p62) (or (not p25) p71 (not p25)) (or (not p11) (not p67) (not p34)) (or (not p68) (not p61) p22) (or (not p40) (not p18) (not p67)) (or p86 (not p63) p37) (or (not p63) (not p33) (not p32)) (or p1 (not p27) p16) (or (not p4) p35 (not p83)) (or (not p38) (not p78) p24) (or (not p83) (not p31) (not p80)) (or p45 p37 (not p87)) (or p29 (not p79) (not p53)) (or (not p12) (not p8) p20) (or (not p51) p31 p1) (or p34 p87 (not p30)) (or (not p62) (not p8) (not p88)) (or p47 p34 p84) (or p49 (not p2) p81) (or (not p62) p51 (not p86)) (or p67 (not p59) p69) (or (not p4) (not p33) p56) (or (not p55) (not p38) (not p6)) (or (not p72) (not p32) p47) (or (not p42) (not p16) p10) (or p50 p72 p76) (or (not p67) (not p6) p79) (or (not p30) p63 p10) (or (not p19) p88 (not p17)) (or (not p63) p46 (not p29)) (or p14 p3 (not p12)) (or (not p87) p11 p75) (or p83 p49 (not p56)) (or (not p39) p87 p21) (or (not p48) (not p21) p36) (or p89 (not p79) p60) (or p8 p12 p43) (or (not p89) p0 p61) (or (not p26) (not p7) p17) (or p40 p26 (not p17)) (or (not p34) p71 p54) (or (not p63) p40 (not p87)) (or (not p10) p72 (not p49)) (or (not p22) p86 (not p14)) (or p40 p20 p21) (or (not p34) p8 p56) (or (not p68) (not p32) p81) (or (not p32) (not p49) (not p16)) (or (not p87) p76 (not p12)) (or p28 (not p64) p21) (or (not p61) p42 p74) (or (not p83) p77 (not p67)) (or p20 (not p15) (not p82)) (or p28 (not p6) p31) (or p54 (not p66) (not p64)) (or (not p73) (not p28) p42) (or p76 (not p51) (not p66)) (or (not p80) p64 (not p55)) (or p54 p29 p73) (or p73 p14 (not p59)) (or (not p46) (not p29) p0) (or (not p62) p36 p57) (or p26 (not p77) p44) (or p30 p24 p64) (or p0 (not p73) (not p37)) (or p17 p14 p86) (or p48 p1 p3) (or p24 p28 p25) (or p27 p73 (not p11)) (or (not p41) p82 p57) (or (not p88) p84 p6) (or p81 (not p78) (not p79)) (or (not p84) p63 (not p89)) (or (not p75) (not p3) p52) (or (not p57) p53 p39) (or p63 (not p82) p88) (or (not p26) (not p63) (not p64)) (or (not p30) p89 p19) (or p36 p51 (not p1)) (or (not p2) p79 (not p70)) (or (not p53) p22 p18) (or (not p64) p43 (not p3)) (or (not p51) (not p55) p31) (or (not p42) (not p69) (not p61)) (or p57 (not p0) p55) (or p41 (not p73) p59) (or (not p87) (not p10) p4) (or (not p7) (not p32) (not p53)) (or (not p59) (not p24) (not p55)) (or (not p44) p62 (not p51)) (or p66 p49 p27) (or (not p89) p13 (not p69)) (or (not p18) p11 (not p79)) (or p72 p36 (not p71)) (or (not p49) (not p84) p5) (or (not p23) p66 p80) (or p0 p13 (not p74)) (or (not p87) (not p57) (not p32)) (or (not p69) p51 p4) (or (not p45) (not p64) (not p86)) (or p39 (not p1) p11) (or p17 (not p66) p85) (or p6 (not p65) (not p19)) (or p78 p31 (not p73)) (or p44 p84 (not p5)) (or p20 (not p23) p64) (or (not p85) (not p36) p84) (or p89 (not p25) (not p85)) (or (not p31) p4 (not p7)) (or p80 (not p36) (not p0)) (or (not p56) p19 p18) (or (not p80) p43 (not p60)) (or p62 p15 p53) (or p55 (not p16) p88) (or p63 (not p8) (not p18)) (or p38 p10 (not p86)) (or p82 p20 (not p14)) (or p56 p71 p52) (or p55 p48 p24) (or p28 p8 p60) (or (not p48) (not p23) (not p73)) (or (not p2) (not p22) (not p72)) (or (not p73) (not p76) p23) (or p75 (not p10) p88) (or p41 (not p37) (not p75)) (or (not p45) (not p5) (not p64)) (or p78 (not p2) p27) (or (not p68) (not p22) (not p78)) (or p85 (not p52) p65) (or (not p54) (not p28) (not p63)) (or p40 p56 p89) (or p88 (not p23) (not p39)) (or p85 p57 p68) (or (not p8) p80 (not p35)) (or (not p47) p29 p67) (or (not p75) (not p86) (not p23)) (or p72 (not p85) (not p40)) (or (not p11) (not p68) p77) (or p30 (not p13) p9) (or p78 p34 (not p18)) (or p11 p1 (not p4)) (or (not p25) p49 (not p29)) (or (not p27) (not p63) p32) (or p50 p74 p75) (or p50 (not p81) (not p88)) (or p64 p39 (not p34)) (or (not p34) (not p65) p77) (or (not p2) (not p38) p37) (or (not p14) (not p15) (not p60)) (or (not p56) p81 (not p55)) (or (not p50) (not p65) p0) (or p36 (not p84) p7) (or (not p27) p3 p55) (or (not p46) (not p30) (not p76)) (or p42 p10 p86) (or (not p80) p1 p83) (or (not p19) (not p4) p76) (or p20 p54 p9) (or p35 p85 p65) (or p86 p72 (not p12)) (or p32 p3 p13) (or (not p22) p37 (not p53)) (or (not p61) (not p75) (not p76)) (or p74 (not p19) (not p75)) (or p81 p53 p74) (or p64 (not p9) (not p34)) (or p46 (not p20) p53) (or (not p71) p60 p62) (or (not p75) (not p21) p63) (or (not p17) p58 (not p40)) (or p27 (not p50) (not p4)) (or p26 p88 p41) (or p58 (not p63) p15) (or (not p37) p75 p42) (or (not p10) (not p61) p39) (or p24 p11 (not p22)) (or (not p41) p61 (not p45)) (or p55 p88 (not p88)) (or (not p5) (not p62) p75) (or (not p18) p65 (not p80)) (or p49 (not p45) p57) (or p73 (not p64) p18) (or (not p22) p56 p56) (or p68 (not p56) (not p23)) (or p10 p66 (not p56)) (or p43 (not p34) p36) (or (not p61) p67 (not p33)) (or p81 p39 (not p43)) (or (not p89) p12 (not p52)) (or (not p49) p4 p31) (or (not p28) (not p37) p61) (or p30 p51 (not p29)) (or p29 p44 (not p69)) (or p61 (not p52) p22) (or p38 (not p69) p51) (or (not p27) (not p38) p23) (or (not p64) (not p71) (not p83)) (or p15 (not p37) (not p31)) (or (not p11) p79 p86) (or p0 p83 p26) (or p56 p59 p81) (or p56 (not p3) p42) (or p23 p42 (not p44)) (or p52 p39 p86) (or (not p50) (not p36) p20) (or p40 (not p81) (not p38)) (or (not p86) p12 (not p59)) (or p38 p10 (not p78)) (or p56 (not p78) (not p48)) (or p63 (not p27) (not p67)) (or (not p22) (not p34) (not p24)) (or (not p22) p10 p40) (or (not p43) (not p74) (not p75)) (or (not p87) p17 (not p12)) (or p52 p34 p0) (or p46 p0 (not p13)) (or p27 (not p57) p50) (or (not p83) p66 (not p73)) (or p26 (not p84) (not p26)) (or p71 p24 (not p74)) (or p10 p34 p76) (or p87 p21 (not p84)) (or p83 p78 p1) (or p14 (not p44) (not p63)) (or (not p10) p58 p31) (or (not p8) p15 p25) (or (not p25) p28 p56) (or p76 p0 p33) (or p55 (not p81) (not p17)) (or p88 (not p5) p46) (or p29 (not p67) (not p26)) (or p85 p15 (not p52)) (or (not p22) p40 (not p17)) (or p64 (not p52) (not p63)) (or p6 p21 (not p52)) (or p22 (not p27) (not p81)) (or p53 (not p52) p58) (or p36 p80 p40) (or p49 p79 (not p12)) (or (not p5) (not p40) p18) (or (not p86) (not p20) (not p16)) (or (not p65) (not p58) (not p40)) (or p65 p89 (not p34)) (or p58 p61 (not p78)) (or p9 (not p10) (not p18)) (or p5 (not p5) p58) (or p55 p9 (not p29)) (or (not p44) (not p38) (not p78)) (or p89 (not p72) p68) (or (not p54) (not p8) (not p59)) (or p85 (not p56) (not p24)) (or p41 p88 p60) (or p0 p35 (not p72)) (or (not p17) (not p83) (not p43)) (or (not p76) p34 p31) (or p5 (not p71) p69) (or p12 p28 p70) (or (not p64) p72 (not p64)) (or p44 p38 (not p82)) (or (not p83) p41 (not p70)) (or (not p64) p28 (not p4)) (or p14 p48 (not p47)) (or p51 p66 (not p36)) (or p43 (not p9) (not p81)) (or p39 (not p83) p62) (or p72 p56 p25) (or (not p70) (not p71) (not p1)) (or p81 (not p87) p40) (or (not p1) p35 p29) (or (not p21) p74 p62) (or p10 (not p50) (not p45)) (or p87 p39 p87) (or (not p9) (not p38) (not p53)) (or (not p66) (not p21) (not p89)) (or p13 (not p73) p25) (or (not p48) (not p29) (not p34)) (or p30 (not p53) p47) (or (not p84) p84 (not p44)) (or (not p55) p77 (not p15)) (or p77 p70 (not p88)) (or (not p40) (not p59) (not p57)) (or p11 (not p1) (not p56)) (or p68 (not p55) p36) (or p60 (not p72) p84) (or p2 p83 p58) (or p19 (not p89) (not p70)) (or (not p38) p51 p56) (or p46 p72 (not p41)) (or (not p13) (not p33) (not p1)) (or (not p73) p19 (not p0)) (or p0 (not p37) p1) (or p83 p83 (not p75)) (or (not p12) (not p82) p37) (or p43 (not p21) (not p35)) (or (not p50) p63 p26) (or (not p0) p73 p52) (or p66 p50 (not p32)) (or (not p46) p29 (not p89)) (or p63 p11 (not p40)) (or (not p67) p45 p87) (or p5 p63 (not p57)) (or p71 (not p39) (not p50)) (or (not p52) (not p34) (not p31)) (or (not p67) (not p87) (not p10)) (or (not p31) (not p51) p7) (or p59 (not p42) p46) (or p15 (not p36) (not p74)) (or (not p49) (not p26) (not p2)) (or (not p88) (not p62) (not p2)) (or p89 (not p57) (not p56)) (or p47 p83 p32) (or p55 p29 p84) (or (not p38) (not p89) (not p31)) (or p27 (not p9) p27) (or p49 (not p38) (not p59)) (or p3 (not p9) (not p89)) (or p62 (not p5) p2) (or (not p50) p40 (not p77)) (or p57 (not p81) (not p82)) (or p9 p2 p48) (or (not p67) p18 (not p66)) (or p7 p75 (not p38)) (or (not p55) (not p42) p42) (or (not p10) p78 (not p42)) (or (not p12) (not p44) (not p61)) (or (not p51) p84 p13) (or (not p5) (not p37) (not p73)) (or p89 (not p48) (not p52)) (or p12 (not p6) p57) (or p36 p88 (not p34)) (or p55 (not p1) (not p41)) (or p38 (not p41) p12) (or (not p21) p15 (not p43)) (or (not p9) p64 (not p75)) (or (not p87) (not p46) (not p72)) (or (not p41) p50 p72) (or (not p28) (not p78) (not p46)) (or p55 p34 p66) (or (not p13) p59 p71) (or p38 p58 (not p88)) (or (not p80) p7 (not p69)) (or p14 p54 (not p74)) (or p4 (not p82) (not p80)) (or (not p43) (not p73) p9) (or p46 (not p80) (not p5)) (or p0 p87 p65) (or (not p2) (not p48) (not p72)) (or (not p35) p79 p61) (or p31 (not p81) p13) (or p81 (not p81) p37) (or p56 (not p48) (not p3)) (or p13 (not p88) (not p12)) (or p52 p81 p55) (or p25 p31 (not p52)) (or (not p21) p77 p2) (or p27 (not p30) p71) (or p63 (not p54) (not p46)) (or p83 (not p43) (not p3)) (or p41 (not p64) (not p2)) (or (not p59) p83 (not p65)) (or (not p17) (not p8) (not p26)) (or p39 p57 (not p28)) (or (not p63) p39 (not p15)) (or (not p65) (not p20) (not p88)) (or (not p67) (not p35) (not p11)) (or (not p44) (not p6) (not p51)) (or p80 p6 (not p85)) (or p58 p33 p18) (or p32 (not p26) p86) (or p86 (not p36) (not p26)) (or p44 p39 (not p53)) (or p56 (not p86) (not p50)) (or p1 p74 p49) (or (not p49) p44 (not p19)) (or (not p35) (not p69) (not p83)) (or p1 (not p7) (not p26)) (or (not p24) p55 (not p74)) (or p50 p41 (not p41)) (or p40 (not p38) (not p78)) (or (not p9) p30 (not p20)) (or p86 p38 (not p15)))
)
(check-sat)
(get-model)
